\* Problem: Unknown *\

Maximize
 obj: + xp_0_0 + xp_0_1 + xp_0_2 + xp_0_3 + xp_0_4 + xp_0_5 + xp_1_0
 + xp_1_1 + xp_1_2 + xp_2_0 + xp_2_1 + xp_2_2 + xp_2_3 + xp_2_4 + xp_3_0
 + xp_3_1 + xp_3_2 + xp_3_3 + xp_4_0 + xp_4_1 + xp_4_2 + xp_5_0 + xp_5_1
 + xp_6_0 + xp_6_1 + xp_6_2 + xp_7_0 + xp_7_1 + xp_8_0 + xp_8_1 + xp_9_0
 + xp_10_0 + xp_11_0 + xp_11_1 + xp_11_2 + xp_11_3 + xp_12_0 + xp_13_0
 + xp_13_1 + xp_14_0 + xp_14_1 + xp_15_0 + xp_16_0 + xp_16_1 + xp_17_0
 + xp_17_1 + xp_17_2 + xp_17_3 + xp_17_4 + xp_17_5 + xp_17_6 + xp_17_7
 + xp_18_0 + xp_18_1 + xp_18_2 + xp_18_3 + xp_18_4 + xp_18_5 + xp_19_0
 + xp_19_1 + xp_19_2 + xp_19_3 + xp_19_4 + xp_19_5 + xp_20_0 + xp_20_1
 + xp_20_2 + xp_20_3 + xp_21_0 + xp_21_1 + xp_21_2 + xp_21_3 + xp_21_4
 + xp_22_0 + xp_22_1 + xp_22_2 + xp_22_3 + xp_23_0 + xp_23_1 + xp_23_2
 + xp_23_3 + xp_23_4 + xp_23_5

Subject To
 r_1: 0 xp_0_0 <= 25.8704453441296
 r_2: + xp_23_2 + xp_22_3 + xp_18_4 + xp_18_1 + xp_6_2 + xp_5_1 + xp_2_2
 <= 25.6427184466019
 r_3: + xp_23_4 + xp_21_2 + xp_18_5 + xp_18_2 + xp_6_1
 <= 26.2815479528884
 r_4: + xp_17_3 + xp_15_0 <= 26.3893805309735
 r_5: + xp_18_0 <= 25.4328358208955
 r_6: + xp_19_4 + xp_18_3 <= 26.1838588989845
 r_7: + xp_20_3 <= 25.8704453441296
 r_8: + xp_22_2 + xp_11_3 + xp_3_3 + xp_3_2 + xp_2_1 <= 25.6427184466019
 r_9: + xp_23_1 + xp_17_5 + xp_11_1 + xp_3_1 <= 26.2815479528884
 r_10: + xp_17_4 + xp_3_0 <= 26.3893805309735
 r_11: + xp_18_5 + xp_18_3 + xp_11_2 <= 25.4328358208955
 r_12: + xp_11_0 <= 26.1838588989845
 r_13: 0 xp_0_0 <= 27.6367006487488
 r_14: + xp_21_1 + xp_14_0 + xp_0_5 + xp_0_1 <= 25.6427184466019
 r_15: + xp_21_0 + xp_19_3 <= 26.2815479528884
 r_16: + xp_22_1 + xp_21_3 + xp_19_5 + xp_4_2 + xp_0_3 + xp_0_2
 <= 26.6425279789335
 r_17: + xp_0_0 <= 25.4328358208955
 r_18: + xp_21_2 + xp_19_4 + xp_4_0 <= 25.8704453441296
 r_19: + xp_19_0 <= 25.8704453441296
 r_20: + xp_21_4 + xp_19_2 + xp_19_1 + xp_14_1 + xp_4_1 + xp_0_4
 <= 27.6367006487488
 r_21: + xp_20_1 <= 25.6427184466019
 r_22: + xp_21_4 + xp_21_1 + xp_7_1 <= 26.2815479528884
 r_23: + xp_22_3 + xp_22_2 + xp_17_6 + xp_3_3 <= 26.6425279789335
 r_24: + xp_23_5 + xp_23_2 + xp_18_4 + xp_6_2 + xp_3_2 + xp_0_5
 <= 26.0136785539814
 r_25: 0 xp_0_0 <= 27.6367006487488
 r_26: + xp_18_1 + xp_0_4 + xp_0_1 <= 25.4328358208955
 r_27: + xp_11_3 + xp_4_1 <= 25.6427184466019
 r_28: + xp_19_2 <= 25.6427184466019
 r_29: + xp_20_2 <= 26.2815479528884
 r_30: + xp_2_0 <= 26.2815479528884
 r_31: + xp_23_4 + xp_23_1 + xp_18_2 + xp_17_5 + xp_6_1 + xp_3_1
 + xp_2_4 <= 26.0136785539814
 r_32: + xp_2_3 <= 27.6367006487488
 r_33: + xp_11_1 + xp_2_2 <= 26.2815479528884
 r_34: + xp_19_3 + xp_18_5 + xp_2_1 <= 26.2815479528884
 r_35: 0 xp_0_0 <= 26.6425279789335
 r_36: + xp_9_0 <= 26.6425279789335
 r_37: + xp_21_3 + xp_13_1 + xp_8_1 <= 26.0136785539814
 r_38: + xp_19_5 + xp_17_7 + xp_1_1 <= 27.6367006487488
 r_39: + xp_17_6 + xp_17_1 + xp_4_2 + xp_3_3 + xp_0_3
 <= 26.3893805309735
 r_40: + xp_0_2 <= 25.4328358208955
 r_41: + xp_12_0 + xp_2_4 <= 26.0136785539814
 r_42: + xp_21_3 <= 26.0136785539814
 r_43: + xp_16_0 <= 26.0136785539814
 r_44: + xp_23_5 + xp_23_4 + xp_23_3 + xp_23_2 + xp_23_1 + xp_16_1
 + xp_1_2 <= 27.6367006487488
 r_45: + xp_17_5 + xp_17_2 + xp_3_2 + xp_3_1 <= 26.3893805309735
 r_46: + xp_18_4 + xp_18_2 + xp_0_5 <= 25.4328358208955
 r_47: + xp_16_1 + xp_13_1 <= 27.6367006487488
 r_48: + xp_13_0 <= 27.6367006487488
 r_49: + xp_19_5 + xp_17_7 <= 26.3893805309735
 r_50: 0 xp_0_0 <= 25.4328358208955
 r_51: + xp_8_1 + xp_1_1 <= 26.3893805309735
 r_52: + xp_8_0 + xp_1_2 <= 26.3893805309735
 r_53: + xp_1_0 <= 26.3893805309735
 r_54: + xp_0_3 <= 25.4328358208955
 r_55: + xp_4_2 <= 26.3893805309735
 r_56: + xp_19_5 <= 26.3893805309735
 r_57: + xp_22_1 <= 25.4328358208955
 r_58: + xp_23_5 + xp_17_6 + xp_5_0 <= 25.4328358208955
 r_59: + xp_22_0 + xp_17_7 + xp_17_1 <= 25.4328358208955
 r_60: + xp_23_3 + xp_17_2 + xp_6_0 <= 25.4328358208955
 r_61: + xp_23_0 <= 25.4328358208955
 r_62: + xp_17_0 <= 25.4328358208955
 r_63: + xp_23_4 + xp_23_2 + xp_22_3 + xp_17_3 + xp_11_2 + xp_6_2
 + xp_6_1 + xp_5_1 <= 25.4328358208955
 r_64: + xp_23_1 + xp_22_2 + xp_17_5 + xp_17_4 <= 25.4328358208955
 r_65: + xp_21_4 + xp_20_1 + xp_19_2 + xp_14_1 + xp_7_1 + xp_4_1
 + xp_2_3 + xp_0_4 <= 27.6367006487488
 r_66: + xp_20_2 + xp_7_0 <= 27.6367006487488
 r_67: + xp_20_3 + xp_19_1 + xp_10_0 <= 27.6367006487488
 r_68: + xp_20_0 <= 27.6367006487488

Bounds
 0 <= xp_0_0 <= 27.9717766276435
 0 <= xp_0_1 <= 4.74738498382005
 0 <= xp_0_2 <= 11.4115842495374
 0 <= xp_0_3 <= 5.70579212476868
 0 <= xp_0_4 <= 6.46358769334297
 0 <= xp_0_5 <= 6.46358769334297
 0 <= xp_1_0 <= 20.2005917803881
 0 <= xp_1_1 <= 12.4665515432801
 0 <= xp_1_2 <= 2.4739982780972
 0 <= xp_2_0 <= 23.6181334177791
 0 <= xp_2_1 <= 2.02822337235653
 0 <= xp_2_2 <= 5.62407101364658
 0 <= xp_2_3 <= 0.676074457452178
 0 <= xp_2_4 <= 2.70429782980871
 0 <= xp_3_0 <= 22.0579459876696
 0 <= xp_3_1 <= 6.3075724139296
 0 <= xp_3_2 <= 0.906383905156802
 0 <= xp_3_3 <= 2.9271902306756
 0 <= xp_4_0 <= 21.3967204678826
 0 <= xp_4_1 <= 2.37741338532028
 0 <= xp_4_2 <= 2.37741338532028
 0 <= xp_5_0 <= 23.7741338532028
 0 <= xp_5_1 <= 2.37741338532028
 0 <= xp_6_0 <= 19.2570484210943
 0 <= xp_6_1 <= 2.13967204678826
 0 <= xp_6_2 <= 2.13967204678826
 0 <= xp_7_0 <= 20.5051904483875
 0 <= xp_7_1 <= 2.05051904483875
 0 <= xp_8_0 <= 16.582458362609
 0 <= xp_8_1 <= 3.68499074724644
 0 <= xp_9_0 <= 18.7964245776885
 0 <= xp_10_0 <= 18.7964245776885
 0 <= xp_11_0 <= 27.2139810590692
 0 <= xp_11_1 <= 15.1337047629415
 0 <= xp_11_2 <= 6.32985324242214
 0 <= xp_11_3 <= 10.8172309032073
 0 <= xp_12_0 <= 17.6522943860031
 0 <= xp_13_0 <= 14.0415978070479
 0 <= xp_13_1 <= 3.12035506823287
 0 <= xp_14_0 <= 11.8870669266014
 0 <= xp_14_1 <= 4.45765009747553
 0 <= xp_15_0 <= 16.1812698538362
 0 <= xp_16_0 <= 14.1158919753392
 0 <= xp_16_1 <= 1.41158919753392
 0 <= xp_17_0 <= 28.0534977387656
 0 <= xp_17_1 <= 1.6567574788968
 0 <= xp_17_2 <= 3.31351495779359
 0 <= xp_17_3 <= 3.31351495779359
 0 <= xp_17_4 <= 3.31351495779359
 0 <= xp_17_5 <= 1.6567574788968
 0 <= xp_17_6 <= 2.4739982780972
 0 <= xp_17_7 <= 1.6567574788968
 0 <= xp_18_0 <= 21.2407002404726
 0 <= xp_18_1 <= 3.95244975309497
 0 <= xp_18_2 <= 2.4739982780972
 0 <= xp_18_3 <= 11.8573492592849
 0 <= xp_18_4 <= 1.47845147499777
 0 <= xp_18_5 <= 2.4739982780972
 0 <= xp_19_0 <= 28.6478560330922
 0 <= xp_19_1 <= 4.30162492206906
 0 <= xp_19_2 <= 2.86774994804604
 0 <= xp_19_3 <= 2.86774994804604
 0 <= xp_19_4 <= 2.86774994804604
 0 <= xp_19_5 <= 1.43387497402302
 0 <= xp_20_0 <= 27.4591443924355
 0 <= xp_20_1 <= 6.55274069529248
 0 <= xp_20_2 <= 5.43832322292704
 0 <= xp_20_3 <= 2.71916161146352
 0 <= xp_21_0 <= 27.132250051954
 0 <= xp_21_1 <= 3.58840090647297
 0 <= xp_21_2 <= 3.58840090647297
 0 <= xp_21_3 <= 4.86626554907918
 0 <= xp_21_4 <= 1.19613363549099
 0 <= xp_22_0 <= 23.9821674204115
 0 <= xp_22_1 <= 2.4739982780972
 0 <= xp_22_2 <= 9.13817775182829
 0 <= xp_22_3 <= 3.14263589672542
 0 <= xp_23_0 <= 27.8826186776974
 0 <= xp_23_1 <= 1.04754529890847
 0 <= xp_23_2 <= 1.04754529890847
 0 <= xp_23_3 <= 3.14263589672542
 0 <= xp_23_4 <= 4.56908887591414
 0 <= xp_23_5 <= 1.04754529890847

End
